Version identifier: 20.1.0.0 | 2020-11-10 | 9bedb6d68
Tried aggregator 2 times.
MIP Presolve eliminated 661 rows and 378 columns.
MIP Presolve modified 1301 coefficients.
Aggregator did 82 substitutions.
Reduced MIP has 538 rows, 447 columns, and 1708 nonzeros.
Reduced MIP has 122 binaries, 325 generals, 0 SOSs, and 0 indicators.
Presolve time = 0.01 sec. (2.78 ticks)
Found incumbent of value 650.000000 after 0.01 sec. (4.33 ticks)
Probing fixed 15 vars, tightened 128 bounds.
Probing time = 0.00 sec. (0.36 ticks)
Tried aggregator 2 times.
Detecting symmetries...
MIP Presolve eliminated 225 rows and 19 columns.
MIP Presolve modified 39 coefficients.
Aggregator did 3 substitutions.
Reduced MIP has 310 rows, 425 columns, and 1009 nonzeros.
Reduced MIP has 170 binaries, 255 generals, 0 SOSs, and 0 indicators.
Presolve time = 0.00 sec. (1.42 ticks)
Probing time = 0.00 sec. (0.09 ticks)
Clique table members: 16.
MIP emphasis: balance optimality and feasibility.
MIP search method: dynamic search.
Parallel mode: deterministic, using up to 24 threads.
Root relaxation solution time = 0.00 sec. (1.00 ticks)

        Nodes                                         Cuts/
   Node  Left     Objective  IInf  Best Integer    Best Bound    ItCnt     Gap

*     0+    0                          650.0000        0.0000           100.00%
*     0+    0                           16.0000        0.0000           100.00%
      0     0        0.0000    34       16.0000        0.0000      119  100.00%
*     0+    0                            9.0000        0.0000           100.00%
      0     0        1.3333    65        9.0000      Cuts: 79      232   85.19%
      0     0        2.6701    97        9.0000      Cuts: 49      279   70.33%
      0     0        2.6701    84        9.0000      Cuts: 37      312   70.33%
      0     0        2.6701    88        9.0000      Cuts: 28      341   70.33%
      0     0        2.6701    48        9.0000       Cuts: 6      362   70.33%
*     0+    0                            7.0000        2.6701            61.86%
      0     0        2.6701    54        7.0000      Cuts: 31      391   61.86%
      0     0        cutoff              7.0000        7.0000      391    0.00%
Elapsed time = 0.28 sec. (37.53 ticks, tree = 0.01 MB, solutions = 4)

Cover cuts applied:  3
Implied bound cuts applied:  12
Flow cuts applied:  2
Mixed integer rounding cuts applied:  4
Zero-half cuts applied:  38
Lift and project cuts applied:  3
Gomory fractional cuts applied:  9

Root node processing (before b&c):
  Real time             =    0.28 sec. (37.58 ticks)
Parallel b&c, 24 threads:
  Real time             =    0.00 sec. (0.00 ticks)
  Sync time (average)   =    0.00 sec.
  Wait time (average)   =    0.00 sec.
                          ------------
Total (root+branch&cut) =    0.28 sec. (37.58 ticks)

Solution status = Optimal
Solution LB = 7
Solution UB = 7
Runtime = 0.283634 seconds
	Command being timed: "/home/min/git_repos/CS598MEBProject/CNT-ILP/build/cnt -s 2 ./output/k6_n15/simC_c1_k6_n15_u2_s3_del04.input-left.cnp"
	User time (seconds): 4.59
	System time (seconds): 0.03
	Percent of CPU this job got: 1456%
	Elapsed (wall clock) time (h:mm:ss or m:ss): 0:00.31
	Average shared text size (kbytes): 0
	Average unshared data size (kbytes): 0
	Average stack size (kbytes): 0
	Average total size (kbytes): 0
	Maximum resident set size (kbytes): 46076
	Average resident set size (kbytes): 0
	Major (requiring I/O) page faults: 0
	Minor (reclaiming a frame) page faults: 8514
	Voluntary context switches: 1554
	Involuntary context switches: 885
	Swaps: 0
	File system inputs: 0
	File system outputs: 16
	Socket messages sent: 0
	Socket messages received: 0
	Signals delivered: 0
	Page size (bytes): 4096
	Exit status: 0
